NAME          DCAP_2_4_3_500_SS45
ROWS
 N  OBJ
 L  CON1
 L  CON2
 L  CON3
 L  CON4
 L  CON5
 L  CON6
 L  CON7
 L  CON8
 L  CON9
 L  CON10
 L  CON11
 L  CON12
 E  CON13
 E  CON14
 E  CON15
 E  CON16
 E  CON17
 E  CON18
 E  CON19
 E  CON20
 E  CON21
 E  CON22
 E  CON23
 E  CON24
COLUMNS
    x[1,1]    OBJ       6.180167      CON1      1.000000    
    x[1,1]    CON7      -1.000000     CON8      -1.000000   
    x[1,1]    CON9      -1.000000   
    x[1,2]    OBJ       6.563535      CON2      1.000000    
    x[1,2]    CON8      -1.000000     CON9      -1.000000   
    x[1,3]    OBJ       7.443064      CON3      1.000000    
    x[1,3]    CON9      -1.000000   
    x[2,1]    OBJ       6.732585      CON4      1.000000    
    x[2,1]    CON10     -1.000000     CON11     -1.000000   
    x[2,1]    CON12     -1.000000   
    x[2,2]    OBJ       5.039546      CON5      1.000000    
    x[2,2]    CON11     -1.000000     CON12     -1.000000   
    x[2,3]    OBJ       6.054841      CON6      1.000000    
    x[2,3]    CON12     -1.000000   
    MARKER    'MARKER'                'INTORG'
    u[1,1]    OBJ       48.076654     CON1      -1.000000   
    u[1,2]    OBJ       20.066487     CON2      -1.000000   
    u[1,3]    OBJ       32.230043     CON3      -1.000000   
    u[2,1]    OBJ       49.996186     CON4      -1.000000   
    u[2,2]    OBJ       49.466655     CON5      -1.000000   
    u[2,3]    OBJ       27.484319     CON6      -1.000000   
    y[1,1,1]  OBJ       6.733257      CON7      1.326737    
    y[1,1,1]  CON13     1.000000    
    y[1,1,2]  OBJ       9.287847      CON8      1.058850    
    y[1,1,2]  CON14     1.000000    
    y[1,1,3]  OBJ       5.293438      CON9      0.542158    
    y[1,1,3]  CON15     1.000000    
    y[1,2,1]  OBJ       7.511560      CON7      0.633337    
    y[1,2,1]  CON16     1.000000    
    y[1,2,2]  OBJ       6.636344      CON8      1.352026    
    y[1,2,2]  CON17     1.000000    
    y[1,2,3]  OBJ       5.219256      CON9      1.163418    
    y[1,2,3]  CON18     1.000000    
    y[1,3,1]  OBJ       7.101537      CON7      0.903002    
    y[1,3,1]  CON19     1.000000    
    y[1,3,2]  OBJ       7.206004      CON8      1.090926    
    y[1,3,2]  CON20     1.000000    
    y[1,3,3]  OBJ       8.762153      CON9      1.287507    
    y[1,3,3]  CON21     1.000000    
    y[1,4,1]  OBJ       5.320753      CON7      1.273189    
    y[1,4,1]  CON22     1.000000    
    y[1,4,2]  OBJ       7.150641      CON8      1.093132    
    y[1,4,2]  CON23     1.000000    
    y[1,4,3]  OBJ       8.247966      CON9      1.189355    
    y[1,4,3]  CON24     1.000000    
    y[2,1,1]  OBJ       9.862028      CON10     1.326737    
    y[2,1,1]  CON13     1.000000    
    y[2,1,2]  OBJ       7.809478      CON11     1.058850    
    y[2,1,2]  CON14     1.000000    
    y[2,1,3]  OBJ       6.271448      CON12     0.542158    
    y[2,1,3]  CON15     1.000000    
    y[2,2,1]  OBJ       9.104575      CON10     0.633337    
    y[2,2,1]  CON16     1.000000    
    y[2,2,2]  OBJ       8.298044      CON11     1.352026    
    y[2,2,2]  CON17     1.000000    
    y[2,2,3]  OBJ       8.472414      CON12     1.163418    
    y[2,2,3]  CON18     1.000000    
    y[2,3,1]  OBJ       7.223852      CON10     0.903002    
    y[2,3,1]  CON19     1.000000    
    y[2,3,2]  OBJ       7.390949      CON11     1.090926    
    y[2,3,2]  CON20     1.000000    
    y[2,3,3]  OBJ       5.928548      CON12     1.287507    
    y[2,3,3]  CON21     1.000000    
    y[2,4,1]  OBJ       9.807366      CON10     1.273189    
    y[2,4,1]  CON22     1.000000    
    y[2,4,2]  OBJ       8.176077      CON11     1.093132    
    y[2,4,2]  CON23     1.000000    
    y[2,4,3]  OBJ       6.079405      CON12     1.189355    
    y[2,4,3]  CON24     1.000000    
    z[1,1]    OBJ       597.994833    CON13     1.000000    
    z[1,2]    OBJ       862.327563    CON14     1.000000    
    z[1,3]    OBJ       797.577580    CON15     1.000000    
    z[2,1]    OBJ       651.054596    CON16     1.000000    
    z[2,2]    OBJ       723.129702    CON17     1.000000    
    z[2,3]    OBJ       851.713916    CON18     1.000000    
    z[3,1]    OBJ       576.439877    CON19     1.000000    
    z[3,2]    OBJ       569.511673    CON20     1.000000    
    z[3,3]    OBJ       613.342807    CON21     1.000000    
    z[4,1]    OBJ       640.147895    CON22     1.000000    
    z[4,2]    OBJ       806.103875    CON23     1.000000    
    z[4,3]    OBJ       934.558240    CON24     1.000000    
    MARKER    'MARKER'                 'INTEND'
RHS
    RHS       CON1      -0.000000     CON2      -0.000000   
    RHS       CON3      -0.000000     CON4      -0.000000   
    RHS       CON5      -0.000000     CON6      -0.000000   
    RHS       CON7      -0.000000     CON8      -0.000000   
    RHS       CON9      -0.000000     CON10     -0.000000   
    RHS       CON11     -0.000000     CON12     -0.000000   
    RHS       CON13     1.000000      CON14     1.000000    
    RHS       CON15     1.000000      CON16     1.000000    
    RHS       CON17     1.000000      CON18     1.000000    
    RHS       CON19     1.000000      CON20     1.000000    
    RHS       CON21     1.000000      CON22     1.000000    
    RHS       CON23     1.000000      CON24     1.000000    
BOUNDS
 BV BOUND     u[1,1]  
 BV BOUND     u[1,2]  
 BV BOUND     u[1,3]  
 BV BOUND     u[2,1]  
 BV BOUND     u[2,2]  
 BV BOUND     u[2,3]  
 BV BOUND     y[1,1,1]
 BV BOUND     y[1,1,2]
 BV BOUND     y[1,1,3]
 BV BOUND     y[1,2,1]
 BV BOUND     y[1,2,2]
 BV BOUND     y[1,2,3]
 BV BOUND     y[1,3,1]
 BV BOUND     y[1,3,2]
 BV BOUND     y[1,3,3]
 BV BOUND     y[1,4,1]
 BV BOUND     y[1,4,2]
 BV BOUND     y[1,4,3]
 BV BOUND     y[2,1,1]
 BV BOUND     y[2,1,2]
 BV BOUND     y[2,1,3]
 BV BOUND     y[2,2,1]
 BV BOUND     y[2,2,2]
 BV BOUND     y[2,2,3]
 BV BOUND     y[2,3,1]
 BV BOUND     y[2,3,2]
 BV BOUND     y[2,3,3]
 BV BOUND     y[2,4,1]
 BV BOUND     y[2,4,2]
 BV BOUND     y[2,4,3]
 BV BOUND     z[1,1]  
 BV BOUND     z[1,2]  
 BV BOUND     z[1,3]  
 BV BOUND     z[2,1]  
 BV BOUND     z[2,2]  
 BV BOUND     z[2,3]  
 BV BOUND     z[3,1]  
 BV BOUND     z[3,2]  
 BV BOUND     z[3,3]  
 BV BOUND     z[4,1]  
 BV BOUND     z[4,2]  
 BV BOUND     z[4,3]  
ENDATA
